; benchmark generated from python API
(set-info :status unknown)
(declare-fun cell_1_3 () Int)
(declare-fun cell_1_4 () Int)
(declare-fun cell_2_1 () Int)
(declare-fun cell_3_7 () Int)
(declare-fun cell_4_6 () Int)
(declare-fun cell_5_9 () Int)
(declare-fun cell_6_2 () Int)
(declare-fun cell_7_5 () Int)
(declare-fun cell_8_8 () Int)
(declare-fun cell_9_3 () Int)
(declare-fun cell_1_1 () Int)
(declare-fun cell_3_1 () Int)
(declare-fun cell_4_1 () Int)
(declare-fun cell_5_1 () Int)
(declare-fun cell_6_1 () Int)
(declare-fun cell_7_1 () Int)
(declare-fun cell_8_1 () Int)
(declare-fun cell_9_1 () Int)
(declare-fun cell_1_2 () Int)
(declare-fun cell_2_2 () Int)
(declare-fun cell_3_2 () Int)
(declare-fun cell_4_2 () Int)
(declare-fun cell_5_2 () Int)
(declare-fun cell_7_2 () Int)
(declare-fun cell_8_2 () Int)
(declare-fun cell_9_2 () Int)
(declare-fun cell_2_3 () Int)
(declare-fun cell_3_3 () Int)
(declare-fun cell_4_3 () Int)
(declare-fun cell_5_3 () Int)
(declare-fun cell_6_3 () Int)
(declare-fun cell_7_3 () Int)
(declare-fun cell_8_3 () Int)
(declare-fun cell_2_4 () Int)
(declare-fun cell_3_4 () Int)
(declare-fun cell_4_4 () Int)
(declare-fun cell_5_4 () Int)
(declare-fun cell_6_4 () Int)
(declare-fun cell_7_4 () Int)
(declare-fun cell_8_4 () Int)
(declare-fun cell_9_4 () Int)
(declare-fun cell_1_5 () Int)
(declare-fun cell_2_5 () Int)
(declare-fun cell_3_5 () Int)
(declare-fun cell_4_5 () Int)
(declare-fun cell_5_5 () Int)
(declare-fun cell_6_5 () Int)
(declare-fun cell_8_5 () Int)
(declare-fun cell_9_5 () Int)
(declare-fun cell_1_6 () Int)
(declare-fun cell_2_6 () Int)
(declare-fun cell_3_6 () Int)
(declare-fun cell_5_6 () Int)
(declare-fun cell_6_6 () Int)
(declare-fun cell_7_6 () Int)
(declare-fun cell_8_6 () Int)
(declare-fun cell_9_6 () Int)
(declare-fun cell_1_7 () Int)
(declare-fun cell_2_7 () Int)
(declare-fun cell_4_7 () Int)
(declare-fun cell_5_7 () Int)
(declare-fun cell_6_7 () Int)
(declare-fun cell_7_7 () Int)
(declare-fun cell_8_7 () Int)
(declare-fun cell_9_7 () Int)
(declare-fun cell_1_8 () Int)
(declare-fun cell_2_8 () Int)
(declare-fun cell_3_8 () Int)
(declare-fun cell_4_8 () Int)
(declare-fun cell_5_8 () Int)
(declare-fun cell_6_8 () Int)
(declare-fun cell_7_8 () Int)
(declare-fun cell_9_8 () Int)
(declare-fun cell_1_9 () Int)
(declare-fun cell_2_9 () Int)
(declare-fun cell_3_9 () Int)
(declare-fun cell_4_9 () Int)
(declare-fun cell_6_9 () Int)
(declare-fun cell_7_9 () Int)
(declare-fun cell_8_9 () Int)
(declare-fun cell_9_9 () Int)
(assert
 (= cell_1_3 2))
(assert
 (= cell_1_4 1))
(assert
 (= cell_2_1 1))
(assert
 (= cell_3_7 1))
(assert
 (= cell_4_6 1))
(assert
 (= cell_5_9 1))
(assert
 (= cell_6_2 1))
(assert
 (= cell_7_5 1))
(assert
 (= cell_8_8 1))
(assert
 (= cell_9_3 1))
(assert
 (let (($x2462 (= cell_1_1 9)))
 (let (($x7958 (= cell_1_1 8)))
 (let (($x4272 (= cell_1_1 7)))
 (let (($x3993 (= cell_1_1 6)))
 (let (($x6232 (= cell_1_1 5)))
 (let (($x3412 (= cell_1_1 4)))
 (let (($x466 (= cell_1_1 3)))
 (let (($x4847 (= cell_1_1 2)))
 (let (($x8404 (= cell_1_1 1)))
 (or $x8404 $x4847 $x466 $x3412 $x6232 $x3993 $x4272 $x7958 $x2462)))))))))))
(assert
 (let (($x2230 (= cell_2_1 1)))
 (or $x2230 (= cell_2_1 2) (= cell_2_1 3) (= cell_2_1 4) (= cell_2_1 5) (= cell_2_1 6) (= cell_2_1 7) (= cell_2_1 8) (= cell_2_1 9))))
(assert
 (let (($x8297 (= cell_3_1 9)))
 (let (($x402 (= cell_3_1 8)))
 (let (($x2663 (= cell_3_1 7)))
 (let (($x5583 (= cell_3_1 6)))
 (let (($x1216 (= cell_3_1 5)))
 (let (($x1301 (= cell_3_1 4)))
 (let (($x16 (= cell_3_1 3)))
 (let (($x3450 (= cell_3_1 2)))
 (let (($x8526 (= cell_3_1 1)))
 (or $x8526 $x3450 $x16 $x1301 $x1216 $x5583 $x2663 $x402 $x8297)))))))))))
(assert
 (let (($x7096 (= cell_4_1 9)))
 (let (($x3317 (= cell_4_1 8)))
 (let (($x5432 (= cell_4_1 7)))
 (let (($x3713 (= cell_4_1 6)))
 (let (($x443 (= cell_4_1 5)))
 (let (($x5032 (= cell_4_1 4)))
 (let (($x1072 (= cell_4_1 3)))
 (let (($x4409 (= cell_4_1 2)))
 (let (($x4720 (= cell_4_1 1)))
 (or $x4720 $x4409 $x1072 $x5032 $x443 $x3713 $x5432 $x3317 $x7096)))))))))))
(assert
 (let (($x1889 (= cell_5_1 9)))
 (let (($x6037 (= cell_5_1 8)))
 (let (($x4548 (= cell_5_1 7)))
 (let (($x2947 (= cell_5_1 6)))
 (let (($x9992 (= cell_5_1 5)))
 (let (($x4614 (= cell_5_1 4)))
 (let (($x213 (= cell_5_1 3)))
 (let (($x4698 (= cell_5_1 2)))
 (let (($x7846 (= cell_5_1 1)))
 (or $x7846 $x4698 $x213 $x4614 $x9992 $x2947 $x4548 $x6037 $x1889)))))))))))
(assert
 (let (($x10108 (= cell_6_1 9)))
 (let (($x1375 (= cell_6_1 8)))
 (let (($x3136 (= cell_6_1 7)))
 (let (($x5276 (= cell_6_1 6)))
 (let (($x253 (= cell_6_1 5)))
 (let (($x9305 (= cell_6_1 4)))
 (let (($x1200 (= cell_6_1 3)))
 (let (($x784 (= cell_6_1 2)))
 (let (($x3935 (= cell_6_1 1)))
 (or $x3935 $x784 $x1200 $x9305 $x253 $x5276 $x3136 $x1375 $x10108)))))))))))
(assert
 (let (($x5425 (= cell_7_1 9)))
 (let (($x9168 (= cell_7_1 8)))
 (let (($x7651 (= cell_7_1 7)))
 (let (($x5549 (= cell_7_1 6)))
 (let (($x4084 (= cell_7_1 5)))
 (let (($x1351 (= cell_7_1 4)))
 (let (($x2996 (= cell_7_1 3)))
 (let (($x8007 (= cell_7_1 2)))
 (let (($x425 (= cell_7_1 1)))
 (or $x425 $x8007 $x2996 $x1351 $x4084 $x5549 $x7651 $x9168 $x5425)))))))))))
(assert
 (let (($x6462 (= cell_8_1 9)))
 (let (($x7123 (= cell_8_1 8)))
 (let (($x3283 (= cell_8_1 7)))
 (let (($x4500 (= cell_8_1 6)))
 (let (($x7437 (= cell_8_1 5)))
 (let (($x1319 (= cell_8_1 4)))
 (let (($x6482 (= cell_8_1 3)))
 (let (($x4407 (= cell_8_1 2)))
 (let (($x6647 (= cell_8_1 1)))
 (or $x6647 $x4407 $x6482 $x1319 $x7437 $x4500 $x3283 $x7123 $x6462)))))))))))
(assert
 (let (($x8998 (= cell_9_1 9)))
 (let (($x5355 (= cell_9_1 8)))
 (let (($x859 (= cell_9_1 7)))
 (let (($x6708 (= cell_9_1 6)))
 (let (($x9696 (= cell_9_1 5)))
 (let (($x9098 (= cell_9_1 4)))
 (let (($x8926 (= cell_9_1 3)))
 (let (($x6282 (= cell_9_1 2)))
 (let (($x7266 (= cell_9_1 1)))
 (or $x7266 $x6282 $x8926 $x9098 $x9696 $x6708 $x859 $x5355 $x8998)))))))))))
(assert
 (let (($x852 (= cell_1_2 9)))
 (let (($x6510 (= cell_1_2 8)))
 (let (($x5481 (= cell_1_2 7)))
 (let (($x3737 (= cell_1_2 6)))
 (let (($x6441 (= cell_1_2 5)))
 (let (($x2677 (= cell_1_2 4)))
 (let (($x7268 (= cell_1_2 3)))
 (let (($x2396 (= cell_1_2 2)))
 (let (($x3439 (= cell_1_2 1)))
 (or $x3439 $x2396 $x7268 $x2677 $x6441 $x3737 $x5481 $x6510 $x852)))))))))))
(assert
 (let (($x5943 (= cell_2_2 9)))
 (let (($x9243 (= cell_2_2 8)))
 (let (($x4735 (= cell_2_2 7)))
 (let (($x6959 (= cell_2_2 6)))
 (let (($x2890 (= cell_2_2 5)))
 (let (($x3841 (= cell_2_2 4)))
 (let (($x2918 (= cell_2_2 3)))
 (let (($x8221 (= cell_2_2 2)))
 (let (($x17 (= cell_2_2 1)))
 (or $x17 $x8221 $x2918 $x3841 $x2890 $x6959 $x4735 $x9243 $x5943)))))))))))
(assert
 (let (($x4743 (= cell_3_2 9)))
 (let (($x3288 (= cell_3_2 8)))
 (let (($x2257 (= cell_3_2 7)))
 (let (($x7993 (= cell_3_2 6)))
 (let (($x1985 (= cell_3_2 5)))
 (let (($x4401 (= cell_3_2 4)))
 (let (($x3610 (= cell_3_2 3)))
 (let (($x7532 (= cell_3_2 2)))
 (let (($x4375 (= cell_3_2 1)))
 (or $x4375 $x7532 $x3610 $x4401 $x1985 $x7993 $x2257 $x3288 $x4743)))))))))))
(assert
 (let (($x5384 (= cell_4_2 9)))
 (let (($x8930 (= cell_4_2 8)))
 (let (($x1751 (= cell_4_2 7)))
 (let (($x3595 (= cell_4_2 6)))
 (let (($x2798 (= cell_4_2 5)))
 (let (($x8869 (= cell_4_2 4)))
 (let (($x5683 (= cell_4_2 3)))
 (let (($x6325 (= cell_4_2 2)))
 (let (($x8727 (= cell_4_2 1)))
 (or $x8727 $x6325 $x5683 $x8869 $x2798 $x3595 $x1751 $x8930 $x5384)))))))))))
(assert
 (let (($x9403 (= cell_5_2 9)))
 (let (($x5878 (= cell_5_2 8)))
 (let (($x169 (= cell_5_2 7)))
 (let (($x10244 (= cell_5_2 6)))
 (let (($x8605 (= cell_5_2 5)))
 (let (($x9302 (= cell_5_2 4)))
 (let (($x6366 (= cell_5_2 3)))
 (let (($x8406 (= cell_5_2 2)))
 (let (($x2012 (= cell_5_2 1)))
 (or $x2012 $x8406 $x6366 $x9302 $x8605 $x10244 $x169 $x5878 $x9403)))))))))))
(assert
 (let (($x7314 (= cell_6_2 1)))
 (or $x7314 (= cell_6_2 2) (= cell_6_2 3) (= cell_6_2 4) (= cell_6_2 5) (= cell_6_2 6) (= cell_6_2 7) (= cell_6_2 8) (= cell_6_2 9))))
(assert
 (let (($x8218 (= cell_7_2 9)))
 (let (($x757 (= cell_7_2 8)))
 (let (($x8819 (= cell_7_2 7)))
 (let (($x7463 (= cell_7_2 6)))
 (let (($x5955 (= cell_7_2 5)))
 (let (($x2011 (= cell_7_2 4)))
 (let (($x3190 (= cell_7_2 3)))
 (let (($x5335 (= cell_7_2 2)))
 (let (($x7114 (= cell_7_2 1)))
 (or $x7114 $x5335 $x3190 $x2011 $x5955 $x7463 $x8819 $x757 $x8218)))))))))))
(assert
 (let (($x1687 (= cell_8_2 9)))
 (let (($x7380 (= cell_8_2 8)))
 (let (($x8857 (= cell_8_2 7)))
 (let (($x7016 (= cell_8_2 6)))
 (let (($x2406 (= cell_8_2 5)))
 (let (($x5235 (= cell_8_2 4)))
 (let (($x7703 (= cell_8_2 3)))
 (let (($x5473 (= cell_8_2 2)))
 (let (($x8680 (= cell_8_2 1)))
 (or $x8680 $x5473 $x7703 $x5235 $x2406 $x7016 $x8857 $x7380 $x1687)))))))))))
(assert
 (let (($x8529 (= cell_9_2 9)))
 (let (($x2175 (= cell_9_2 8)))
 (let (($x6059 (= cell_9_2 7)))
 (let (($x397 (= cell_9_2 6)))
 (let (($x6711 (= cell_9_2 5)))
 (let (($x1036 (= cell_9_2 4)))
 (let (($x3536 (= cell_9_2 3)))
 (let (($x8766 (= cell_9_2 2)))
 (let (($x8947 (= cell_9_2 1)))
 (or $x8947 $x8766 $x3536 $x1036 $x6711 $x397 $x6059 $x2175 $x8529)))))))))))
(assert
 (let (($x10160 (= cell_1_3 2)))
 (or (= cell_1_3 1) $x10160 (= cell_1_3 3) (= cell_1_3 4) (= cell_1_3 5) (= cell_1_3 6) (= cell_1_3 7) (= cell_1_3 8) (= cell_1_3 9))))
(assert
 (let (($x5589 (= cell_2_3 9)))
 (let (($x9490 (= cell_2_3 8)))
 (let (($x1749 (= cell_2_3 7)))
 (let (($x4386 (= cell_2_3 6)))
 (let (($x9718 (= cell_2_3 5)))
 (let (($x4778 (= cell_2_3 4)))
 (let (($x6866 (= cell_2_3 3)))
 (let (($x8393 (= cell_2_3 2)))
 (let (($x7040 (= cell_2_3 1)))
 (or $x7040 $x8393 $x6866 $x4778 $x9718 $x4386 $x1749 $x9490 $x5589)))))))))))
(assert
 (let (($x1750 (= cell_3_3 9)))
 (let (($x1348 (= cell_3_3 8)))
 (let (($x223 (= cell_3_3 7)))
 (let (($x6897 (= cell_3_3 6)))
 (let (($x8491 (= cell_3_3 5)))
 (let (($x7375 (= cell_3_3 4)))
 (let (($x1172 (= cell_3_3 3)))
 (let (($x1448 (= cell_3_3 2)))
 (let (($x9945 (= cell_3_3 1)))
 (or $x9945 $x1448 $x1172 $x7375 $x8491 $x6897 $x223 $x1348 $x1750)))))))))))
(assert
 (let (($x6205 (= cell_4_3 9)))
 (let (($x1854 (= cell_4_3 8)))
 (let (($x2885 (= cell_4_3 7)))
 (let (($x9614 (= cell_4_3 6)))
 (let (($x2397 (= cell_4_3 5)))
 (let (($x3909 (= cell_4_3 4)))
 (let (($x2863 (= cell_4_3 3)))
 (let (($x3498 (= cell_4_3 2)))
 (let (($x4522 (= cell_4_3 1)))
 (or $x4522 $x3498 $x2863 $x3909 $x2397 $x9614 $x2885 $x1854 $x6205)))))))))))
(assert
 (let (($x5096 (= cell_5_3 9)))
 (let (($x8720 (= cell_5_3 8)))
 (let (($x6956 (= cell_5_3 7)))
 (let (($x1853 (= cell_5_3 6)))
 (let (($x3925 (= cell_5_3 5)))
 (let (($x4149 (= cell_5_3 4)))
 (let (($x1022 (= cell_5_3 3)))
 (let (($x2973 (= cell_5_3 2)))
 (let (($x5979 (= cell_5_3 1)))
 (or $x5979 $x2973 $x1022 $x4149 $x3925 $x1853 $x6956 $x8720 $x5096)))))))))))
(assert
 (let (($x5323 (= cell_6_3 9)))
 (let (($x6662 (= cell_6_3 8)))
 (let (($x1982 (= cell_6_3 7)))
 (let (($x4134 (= cell_6_3 6)))
 (let (($x8415 (= cell_6_3 5)))
 (let (($x395 (= cell_6_3 4)))
 (let (($x9906 (= cell_6_3 3)))
 (let (($x1256 (= cell_6_3 2)))
 (let (($x6303 (= cell_6_3 1)))
 (or $x6303 $x1256 $x9906 $x395 $x8415 $x4134 $x1982 $x6662 $x5323)))))))))))
(assert
 (let (($x5017 (= cell_7_3 9)))
 (let (($x516 (= cell_7_3 8)))
 (let (($x4416 (= cell_7_3 7)))
 (let (($x3176 (= cell_7_3 6)))
 (let (($x8320 (= cell_7_3 5)))
 (let (($x297 (= cell_7_3 4)))
 (let (($x4653 (= cell_7_3 3)))
 (let (($x8671 (= cell_7_3 2)))
 (let (($x5998 (= cell_7_3 1)))
 (or $x5998 $x8671 $x4653 $x297 $x8320 $x3176 $x4416 $x516 $x5017)))))))))))
(assert
 (let (($x7327 (= cell_8_3 9)))
 (let (($x4218 (= cell_8_3 8)))
 (let (($x6113 (= cell_8_3 7)))
 (let (($x4585 (= cell_8_3 6)))
 (let (($x3548 (= cell_8_3 5)))
 (let (($x638 (= cell_8_3 4)))
 (let (($x5402 (= cell_8_3 3)))
 (let (($x5289 (= cell_8_3 2)))
 (let (($x7505 (= cell_8_3 1)))
 (or $x7505 $x5289 $x5402 $x638 $x3548 $x4585 $x6113 $x4218 $x7327)))))))))))
(assert
 (let (($x7982 (= cell_9_3 1)))
 (or $x7982 (= cell_9_3 2) (= cell_9_3 3) (= cell_9_3 4) (= cell_9_3 5) (= cell_9_3 6) (= cell_9_3 7) (= cell_9_3 8) (= cell_9_3 9))))
(assert
 (let (($x2518 (= cell_1_4 1)))
 (or $x2518 (= cell_1_4 2) (= cell_1_4 3) (= cell_1_4 4) (= cell_1_4 5) (= cell_1_4 6) (= cell_1_4 7) (= cell_1_4 8) (= cell_1_4 9))))
(assert
 (let (($x2076 (= cell_2_4 1)))
 (or $x2076 (= cell_2_4 2) (= cell_2_4 3) (= cell_2_4 4) (= cell_2_4 5) (= cell_2_4 6) (= cell_2_4 7) (= cell_2_4 8) (= cell_2_4 9))))
(assert
 (let (($x2047 (= cell_3_4 9)))
 (let (($x1861 (= cell_3_4 8)))
 (let (($x2431 (= cell_3_4 7)))
 (let (($x602 (= cell_3_4 6)))
 (let (($x10073 (= cell_3_4 5)))
 (let (($x7931 (= cell_3_4 4)))
 (let (($x4448 (= cell_3_4 3)))
 (let (($x872 (= cell_3_4 2)))
 (let (($x3957 (= cell_3_4 1)))
 (or $x3957 $x872 $x4448 $x7931 $x10073 $x602 $x2431 $x1861 $x2047)))))))))))
(assert
 (let (($x7400 (= cell_4_4 9)))
 (let (($x4656 (= cell_4_4 8)))
 (let (($x5964 (= cell_4_4 7)))
 (let (($x461 (= cell_4_4 6)))
 (let (($x2414 (= cell_4_4 5)))
 (let (($x6645 (= cell_4_4 4)))
 (let (($x840 (= cell_4_4 3)))
 (let (($x3315 (= cell_4_4 2)))
 (let (($x2774 (= cell_4_4 1)))
 (or $x2774 $x3315 $x840 $x6645 $x2414 $x461 $x5964 $x4656 $x7400)))))))))))
(assert
 (let (($x2364 (= cell_5_4 9)))
 (let (($x6975 (= cell_5_4 8)))
 (let (($x9643 (= cell_5_4 7)))
 (let (($x9069 (= cell_5_4 6)))
 (let (($x2349 (= cell_5_4 5)))
 (let (($x1244 (= cell_5_4 4)))
 (let (($x7588 (= cell_5_4 3)))
 (let (($x4202 (= cell_5_4 2)))
 (let (($x8898 (= cell_5_4 1)))
 (or $x8898 $x4202 $x7588 $x1244 $x2349 $x9069 $x9643 $x6975 $x2364)))))))))))
(assert
 (let (($x9752 (= cell_6_4 1)))
 (or $x9752 (= cell_6_4 2) (= cell_6_4 3) (= cell_6_4 4) (= cell_6_4 5) (= cell_6_4 6) (= cell_6_4 7) (= cell_6_4 8) (= cell_6_4 9))))
(assert
 (let (($x2782 (= cell_7_4 9)))
 (let (($x6722 (= cell_7_4 8)))
 (let (($x8274 (= cell_7_4 7)))
 (let (($x4310 (= cell_7_4 6)))
 (let (($x8036 (= cell_7_4 5)))
 (let (($x6633 (= cell_7_4 4)))
 (let (($x5080 (= cell_7_4 3)))
 (let (($x2629 (= cell_7_4 2)))
 (let (($x4824 (= cell_7_4 1)))
 (or $x4824 $x2629 $x5080 $x6633 $x8036 $x4310 $x8274 $x6722 $x2782)))))))))))
(assert
 (let (($x9801 (= cell_8_4 9)))
 (let (($x9835 (= cell_8_4 8)))
 (let (($x9561 (= cell_8_4 7)))
 (let (($x5433 (= cell_8_4 6)))
 (let (($x3464 (= cell_8_4 5)))
 (let (($x2235 (= cell_8_4 4)))
 (let (($x6410 (= cell_8_4 3)))
 (let (($x4495 (= cell_8_4 2)))
 (let (($x3004 (= cell_8_4 1)))
 (or $x3004 $x4495 $x6410 $x2235 $x3464 $x5433 $x9561 $x9835 $x9801)))))))))))
(assert
 (let (($x9155 (= cell_9_4 1)))
 (or $x9155 (= cell_9_4 2) (= cell_9_4 3) (= cell_9_4 4) (= cell_9_4 5) (= cell_9_4 6) (= cell_9_4 7) (= cell_9_4 8) (= cell_9_4 9))))
(assert
 (let (($x6796 (= cell_1_5 9)))
 (let (($x1028 (= cell_1_5 8)))
 (let (($x4726 (= cell_1_5 7)))
 (let (($x4565 (= cell_1_5 6)))
 (let (($x5566 (= cell_1_5 5)))
 (let (($x9315 (= cell_1_5 4)))
 (let (($x9293 (= cell_1_5 3)))
 (let (($x9215 (= cell_1_5 2)))
 (let (($x4248 (= cell_1_5 1)))
 (or $x4248 $x9215 $x9293 $x9315 $x5566 $x4565 $x4726 $x1028 $x6796)))))))))))
(assert
 (let (($x2351 (= cell_2_5 9)))
 (let (($x7344 (= cell_2_5 8)))
 (let (($x5021 (= cell_2_5 7)))
 (let (($x5254 (= cell_2_5 6)))
 (let (($x5825 (= cell_2_5 5)))
 (let (($x9174 (= cell_2_5 4)))
 (let (($x2599 (= cell_2_5 3)))
 (let (($x6502 (= cell_2_5 2)))
 (let (($x725 (= cell_2_5 1)))
 (or $x725 $x6502 $x2599 $x9174 $x5825 $x5254 $x5021 $x7344 $x2351)))))))))))
(assert
 (let (($x3180 (= cell_3_5 9)))
 (let (($x3760 (= cell_3_5 8)))
 (let (($x1543 (= cell_3_5 7)))
 (let (($x5385 (= cell_3_5 6)))
 (let (($x6852 (= cell_3_5 5)))
 (let (($x5181 (= cell_3_5 4)))
 (let (($x3131 (= cell_3_5 3)))
 (let (($x6024 (= cell_3_5 2)))
 (let (($x6927 (= cell_3_5 1)))
 (or $x6927 $x6024 $x3131 $x5181 $x6852 $x5385 $x1543 $x3760 $x3180)))))))))))
(assert
 (let (($x3499 (= cell_4_5 9)))
 (let (($x8887 (= cell_4_5 8)))
 (let (($x3989 (= cell_4_5 7)))
 (let (($x8193 (= cell_4_5 6)))
 (let (($x1303 (= cell_4_5 5)))
 (let (($x3087 (= cell_4_5 4)))
 (let (($x7881 (= cell_4_5 3)))
 (let (($x4182 (= cell_4_5 2)))
 (let (($x6296 (= cell_4_5 1)))
 (or $x6296 $x4182 $x7881 $x3087 $x1303 $x8193 $x3989 $x8887 $x3499)))))))))))
(assert
 (let (($x9714 (= cell_5_5 9)))
 (let (($x1950 (= cell_5_5 8)))
 (let (($x3569 (= cell_5_5 7)))
 (let (($x192 (= cell_5_5 6)))
 (let (($x8107 (= cell_5_5 5)))
 (let (($x7771 (= cell_5_5 4)))
 (let (($x2781 (= cell_5_5 3)))
 (let (($x617 (= cell_5_5 2)))
 (let (($x7329 (= cell_5_5 1)))
 (or $x7329 $x617 $x2781 $x7771 $x8107 $x192 $x3569 $x1950 $x9714)))))))))))
(assert
 (let (($x9758 (= cell_6_5 9)))
 (let (($x8283 (= cell_6_5 8)))
 (let (($x9914 (= cell_6_5 7)))
 (let (($x6157 (= cell_6_5 6)))
 (let (($x8494 (= cell_6_5 5)))
 (let (($x1695 (= cell_6_5 4)))
 (let (($x7658 (= cell_6_5 3)))
 (let (($x5421 (= cell_6_5 2)))
 (let (($x8862 (= cell_6_5 1)))
 (or $x8862 $x5421 $x7658 $x1695 $x8494 $x6157 $x9914 $x8283 $x9758)))))))))))
(assert
 (let (($x6158 (= cell_7_5 1)))
 (or $x6158 (= cell_7_5 2) (= cell_7_5 3) (= cell_7_5 4) (= cell_7_5 5) (= cell_7_5 6) (= cell_7_5 7) (= cell_7_5 8) (= cell_7_5 9))))
(assert
 (let (($x4773 (= cell_8_5 9)))
 (let (($x4037 (= cell_8_5 8)))
 (let (($x10031 (= cell_8_5 7)))
 (let (($x4328 (= cell_8_5 6)))
 (let (($x3525 (= cell_8_5 5)))
 (let (($x3693 (= cell_8_5 4)))
 (let (($x1406 (= cell_8_5 3)))
 (let (($x9455 (= cell_8_5 2)))
 (let (($x3145 (= cell_8_5 1)))
 (or $x3145 $x9455 $x1406 $x3693 $x3525 $x4328 $x10031 $x4037 $x4773)))))))))))
(assert
 (let (($x3168 (= cell_9_5 1)))
 (or $x3168 (= cell_9_5 2) (= cell_9_5 3) (= cell_9_5 4) (= cell_9_5 5) (= cell_9_5 6) (= cell_9_5 7) (= cell_9_5 8) (= cell_9_5 9))))
(assert
 (let (($x9586 (= cell_1_6 9)))
 (let (($x4623 (= cell_1_6 8)))
 (let (($x7048 (= cell_1_6 7)))
 (let (($x3161 (= cell_1_6 6)))
 (let (($x8795 (= cell_1_6 5)))
 (let (($x6826 (= cell_1_6 4)))
 (let (($x5207 (= cell_1_6 3)))
 (let (($x7959 (= cell_1_6 2)))
 (let (($x6392 (= cell_1_6 1)))
 (or $x6392 $x7959 $x5207 $x6826 $x8795 $x3161 $x7048 $x4623 $x9586)))))))))))
(assert
 (let (($x7699 (= cell_2_6 9)))
 (let (($x9381 (= cell_2_6 8)))
 (let (($x312 (= cell_2_6 7)))
 (let (($x7487 (= cell_2_6 6)))
 (let (($x1082 (= cell_2_6 5)))
 (let (($x2621 (= cell_2_6 4)))
 (let (($x1367 (= cell_2_6 3)))
 (let (($x3414 (= cell_2_6 2)))
 (let (($x8074 (= cell_2_6 1)))
 (or $x8074 $x3414 $x1367 $x2621 $x1082 $x7487 $x312 $x9381 $x7699)))))))))))
(assert
 (let (($x5148 (= cell_3_6 9)))
 (let (($x6728 (= cell_3_6 8)))
 (let (($x837 (= cell_3_6 7)))
 (let (($x6060 (= cell_3_6 6)))
 (let (($x4494 (= cell_3_6 5)))
 (let (($x3522 (= cell_3_6 4)))
 (let (($x7860 (= cell_3_6 3)))
 (let (($x8313 (= cell_3_6 2)))
 (let (($x5644 (= cell_3_6 1)))
 (or $x5644 $x8313 $x7860 $x3522 $x4494 $x6060 $x837 $x6728 $x5148)))))))))))
(assert
 (let (($x9055 (= cell_4_6 1)))
 (or $x9055 (= cell_4_6 2) (= cell_4_6 3) (= cell_4_6 4) (= cell_4_6 5) (= cell_4_6 6) (= cell_4_6 7) (= cell_4_6 8) (= cell_4_6 9))))
(assert
 (let (($x8784 (= cell_5_6 9)))
 (let (($x9140 (= cell_5_6 8)))
 (let (($x4711 (= cell_5_6 7)))
 (let (($x7218 (= cell_5_6 6)))
 (let (($x25 (= cell_5_6 5)))
 (let (($x3757 (= cell_5_6 4)))
 (let (($x5510 (= cell_5_6 3)))
 (let (($x4752 (= cell_5_6 2)))
 (let (($x2215 (= cell_5_6 1)))
 (or $x2215 $x4752 $x5510 $x3757 $x25 $x7218 $x4711 $x9140 $x8784)))))))))))
(assert
 (let (($x7514 (= cell_6_6 1)))
 (or $x7514 (= cell_6_6 2) (= cell_6_6 3) (= cell_6_6 4) (= cell_6_6 5) (= cell_6_6 6) (= cell_6_6 7) (= cell_6_6 8) (= cell_6_6 9))))
(assert
 (let (($x7121 (= cell_7_6 1)))
 (or $x7121 (= cell_7_6 2) (= cell_7_6 3) (= cell_7_6 4) (= cell_7_6 5) (= cell_7_6 6) (= cell_7_6 7) (= cell_7_6 8) (= cell_7_6 9))))
(assert
 (let (($x8555 (= cell_8_6 9)))
 (let (($x9869 (= cell_8_6 8)))
 (let (($x9994 (= cell_8_6 7)))
 (let (($x6748 (= cell_8_6 6)))
 (let (($x8443 (= cell_8_6 5)))
 (let (($x2155 (= cell_8_6 4)))
 (let (($x4271 (= cell_8_6 3)))
 (let (($x8511 (= cell_8_6 2)))
 (let (($x1235 (= cell_8_6 1)))
 (or $x1235 $x8511 $x4271 $x2155 $x8443 $x6748 $x9994 $x9869 $x8555)))))))))))
(assert
 (let (($x8355 (= cell_9_6 1)))
 (or $x8355 (= cell_9_6 2) (= cell_9_6 3) (= cell_9_6 4) (= cell_9_6 5) (= cell_9_6 6) (= cell_9_6 7) (= cell_9_6 8) (= cell_9_6 9))))
(assert
 (let (($x2958 (= cell_1_7 9)))
 (let (($x9156 (= cell_1_7 8)))
 (let (($x5577 (= cell_1_7 7)))
 (let (($x8056 (= cell_1_7 6)))
 (let (($x5159 (= cell_1_7 5)))
 (let (($x5698 (= cell_1_7 4)))
 (let (($x7629 (= cell_1_7 3)))
 (let (($x3103 (= cell_1_7 2)))
 (let (($x385 (= cell_1_7 1)))
 (or $x385 $x3103 $x7629 $x5698 $x5159 $x8056 $x5577 $x9156 $x2958)))))))))))
(assert
 (let (($x3861 (= cell_2_7 9)))
 (let (($x2370 (= cell_2_7 8)))
 (let (($x2815 (= cell_2_7 7)))
 (let (($x994 (= cell_2_7 6)))
 (let (($x6820 (= cell_2_7 5)))
 (let (($x9770 (= cell_2_7 4)))
 (let (($x4939 (= cell_2_7 3)))
 (let (($x1627 (= cell_2_7 2)))
 (let (($x8725 (= cell_2_7 1)))
 (or $x8725 $x1627 $x4939 $x9770 $x6820 $x994 $x2815 $x2370 $x3861)))))))))))
(assert
 (let (($x10120 (= cell_3_7 1)))
 (or $x10120 (= cell_3_7 2) (= cell_3_7 3) (= cell_3_7 4) (= cell_3_7 5) (= cell_3_7 6) (= cell_3_7 7) (= cell_3_7 8) (= cell_3_7 9))))
(assert
 (let (($x8695 (= cell_4_7 9)))
 (let (($x10111 (= cell_4_7 8)))
 (let (($x3408 (= cell_4_7 7)))
 (let (($x3396 (= cell_4_7 6)))
 (let (($x5607 (= cell_4_7 5)))
 (let (($x5965 (= cell_4_7 4)))
 (let (($x9388 (= cell_4_7 3)))
 (let (($x844 (= cell_4_7 2)))
 (let (($x2841 (= cell_4_7 1)))
 (or $x2841 $x844 $x9388 $x5965 $x5607 $x3396 $x3408 $x10111 $x8695)))))))))))
(assert
 (let (($x3181 (= cell_5_7 9)))
 (let (($x147 (= cell_5_7 8)))
 (let (($x9120 (= cell_5_7 7)))
 (let (($x9012 (= cell_5_7 6)))
 (let (($x8106 (= cell_5_7 5)))
 (let (($x6558 (= cell_5_7 4)))
 (let (($x6608 (= cell_5_7 3)))
 (let (($x3169 (= cell_5_7 2)))
 (let (($x8052 (= cell_5_7 1)))
 (or $x8052 $x3169 $x6608 $x6558 $x8106 $x9012 $x9120 $x147 $x3181)))))))))))
(assert
 (let (($x3936 (= cell_6_7 1)))
 (or $x3936 (= cell_6_7 2) (= cell_6_7 3) (= cell_6_7 4) (= cell_6_7 5) (= cell_6_7 6) (= cell_6_7 7) (= cell_6_7 8) (= cell_6_7 9))))
(assert
 (let (($x9052 (= cell_7_7 9)))
 (let (($x6994 (= cell_7_7 8)))
 (let (($x4115 (= cell_7_7 7)))
 (let (($x6726 (= cell_7_7 6)))
 (let (($x8185 (= cell_7_7 5)))
 (let (($x936 (= cell_7_7 4)))
 (let (($x4820 (= cell_7_7 3)))
 (let (($x1825 (= cell_7_7 2)))
 (let (($x2092 (= cell_7_7 1)))
 (or $x2092 $x1825 $x4820 $x936 $x8185 $x6726 $x4115 $x6994 $x9052)))))))))))
(assert
 (let (($x8220 (= cell_8_7 9)))
 (let (($x7396 (= cell_8_7 8)))
 (let (($x9541 (= cell_8_7 7)))
 (let (($x6355 (= cell_8_7 6)))
 (let (($x7618 (= cell_8_7 5)))
 (let (($x7230 (= cell_8_7 4)))
 (let (($x8146 (= cell_8_7 3)))
 (let (($x9754 (= cell_8_7 2)))
 (let (($x2382 (= cell_8_7 1)))
 (or $x2382 $x9754 $x8146 $x7230 $x7618 $x6355 $x9541 $x7396 $x8220)))))))))))
(assert
 (let (($x5222 (= cell_9_7 1)))
 (or $x5222 (= cell_9_7 2) (= cell_9_7 3) (= cell_9_7 4) (= cell_9_7 5) (= cell_9_7 6) (= cell_9_7 7) (= cell_9_7 8) (= cell_9_7 9))))
(assert
 (let (($x5237 (= cell_1_8 9)))
 (let (($x6551 (= cell_1_8 8)))
 (let (($x2282 (= cell_1_8 7)))
 (let (($x8169 (= cell_1_8 6)))
 (let (($x4606 (= cell_1_8 5)))
 (let (($x8227 (= cell_1_8 4)))
 (let (($x10211 (= cell_1_8 3)))
 (let (($x58 (= cell_1_8 2)))
 (let (($x2877 (= cell_1_8 1)))
 (or $x2877 $x58 $x10211 $x8227 $x4606 $x8169 $x2282 $x6551 $x5237)))))))))))
(assert
 (let (($x3814 (= cell_2_8 9)))
 (let (($x7557 (= cell_2_8 8)))
 (let (($x868 (= cell_2_8 7)))
 (let (($x3800 (= cell_2_8 6)))
 (let (($x4487 (= cell_2_8 5)))
 (let (($x8159 (= cell_2_8 4)))
 (let (($x8528 (= cell_2_8 3)))
 (let (($x362 (= cell_2_8 2)))
 (let (($x2352 (= cell_2_8 1)))
 (or $x2352 $x362 $x8528 $x8159 $x4487 $x3800 $x868 $x7557 $x3814)))))))))))
(assert
 (let (($x1266 (= cell_3_8 9)))
 (let (($x8362 (= cell_3_8 8)))
 (let (($x2185 (= cell_3_8 7)))
 (let (($x726 (= cell_3_8 6)))
 (let (($x109 (= cell_3_8 5)))
 (let (($x8105 (= cell_3_8 4)))
 (let (($x2334 (= cell_3_8 3)))
 (let (($x9429 (= cell_3_8 2)))
 (let (($x6372 (= cell_3_8 1)))
 (or $x6372 $x9429 $x2334 $x8105 $x109 $x726 $x2185 $x8362 $x1266)))))))))))
(assert
 (let (($x1364 (= cell_4_8 9)))
 (let (($x8741 (= cell_4_8 8)))
 (let (($x5859 (= cell_4_8 7)))
 (let (($x4058 (= cell_4_8 6)))
 (let (($x4436 (= cell_4_8 5)))
 (let (($x9149 (= cell_4_8 4)))
 (let (($x3311 (= cell_4_8 3)))
 (let (($x4811 (= cell_4_8 2)))
 (let (($x7567 (= cell_4_8 1)))
 (or $x7567 $x4811 $x3311 $x9149 $x4436 $x4058 $x5859 $x8741 $x1364)))))))))))
(assert
 (let (($x1290 (= cell_5_8 9)))
 (let (($x8243 (= cell_5_8 8)))
 (let (($x1868 (= cell_5_8 7)))
 (let (($x7689 (= cell_5_8 6)))
 (let (($x6876 (= cell_5_8 5)))
 (let (($x9241 (= cell_5_8 4)))
 (let (($x3901 (= cell_5_8 3)))
 (let (($x5270 (= cell_5_8 2)))
 (let (($x5020 (= cell_5_8 1)))
 (or $x5020 $x5270 $x3901 $x9241 $x6876 $x7689 $x1868 $x8243 $x1290)))))))))))
(assert
 (let (($x3383 (= cell_6_8 9)))
 (let (($x959 (= cell_6_8 8)))
 (let (($x63 (= cell_6_8 7)))
 (let (($x5136 (= cell_6_8 6)))
 (let (($x3684 (= cell_6_8 5)))
 (let (($x5100 (= cell_6_8 4)))
 (let (($x4591 (= cell_6_8 3)))
 (let (($x2357 (= cell_6_8 2)))
 (let (($x8684 (= cell_6_8 1)))
 (or $x8684 $x2357 $x4591 $x5100 $x3684 $x5136 $x63 $x959 $x3383)))))))))))
(assert
 (let (($x1196 (= cell_7_8 9)))
 (let (($x1645 (= cell_7_8 8)))
 (let (($x9025 (= cell_7_8 7)))
 (let (($x576 (= cell_7_8 6)))
 (let (($x8715 (= cell_7_8 5)))
 (let (($x1260 (= cell_7_8 4)))
 (let (($x9378 (= cell_7_8 3)))
 (let (($x1638 (= cell_7_8 2)))
 (let (($x8768 (= cell_7_8 1)))
 (or $x8768 $x1638 $x9378 $x1260 $x8715 $x576 $x9025 $x1645 $x1196)))))))))))
(assert
 (let (($x7361 (= cell_8_8 1)))
 (or $x7361 (= cell_8_8 2) (= cell_8_8 3) (= cell_8_8 4) (= cell_8_8 5) (= cell_8_8 6) (= cell_8_8 7) (= cell_8_8 8) (= cell_8_8 9))))
(assert
 (let (($x3657 (= cell_9_8 1)))
 (or $x3657 (= cell_9_8 2) (= cell_9_8 3) (= cell_9_8 4) (= cell_9_8 5) (= cell_9_8 6) (= cell_9_8 7) (= cell_9_8 8) (= cell_9_8 9))))
(assert
 (let (($x7246 (= cell_1_9 9)))
 (let (($x5496 (= cell_1_9 8)))
 (let (($x3669 (= cell_1_9 7)))
 (let (($x9971 (= cell_1_9 6)))
 (let (($x6378 (= cell_1_9 5)))
 (let (($x5428 (= cell_1_9 4)))
 (let (($x6291 (= cell_1_9 3)))
 (let (($x732 (= cell_1_9 2)))
 (let (($x4732 (= cell_1_9 1)))
 (or $x4732 $x732 $x6291 $x5428 $x6378 $x9971 $x3669 $x5496 $x7246)))))))))))
(assert
 (let (($x5642 (= cell_2_9 9)))
 (let (($x1054 (= cell_2_9 8)))
 (let (($x7468 (= cell_2_9 7)))
 (let (($x3461 (= cell_2_9 6)))
 (let (($x3922 (= cell_2_9 5)))
 (let (($x3184 (= cell_2_9 4)))
 (let (($x2514 (= cell_2_9 3)))
 (let (($x6136 (= cell_2_9 2)))
 (let (($x6267 (= cell_2_9 1)))
 (or $x6267 $x6136 $x2514 $x3184 $x3922 $x3461 $x7468 $x1054 $x5642)))))))))))
(assert
 (let (($x8215 (= cell_3_9 9)))
 (let (($x8434 (= cell_3_9 8)))
 (let (($x9046 (= cell_3_9 7)))
 (let (($x8166 (= cell_3_9 6)))
 (let (($x3646 (= cell_3_9 5)))
 (let (($x370 (= cell_3_9 4)))
 (let (($x5409 (= cell_3_9 3)))
 (let (($x401 (= cell_3_9 2)))
 (let (($x1737 (= cell_3_9 1)))
 (or $x1737 $x401 $x5409 $x370 $x3646 $x8166 $x9046 $x8434 $x8215)))))))))))
(assert
 (let (($x2763 (= cell_4_9 9)))
 (let (($x2802 (= cell_4_9 8)))
 (let (($x1150 (= cell_4_9 7)))
 (let (($x6341 (= cell_4_9 6)))
 (let (($x7541 (= cell_4_9 5)))
 (let (($x4486 (= cell_4_9 4)))
 (let (($x9740 (= cell_4_9 3)))
 (let (($x8315 (= cell_4_9 2)))
 (let (($x3327 (= cell_4_9 1)))
 (or $x3327 $x8315 $x9740 $x4486 $x7541 $x6341 $x1150 $x2802 $x2763)))))))))))
(assert
 (let (($x3088 (= cell_5_9 1)))
 (or $x3088 (= cell_5_9 2) (= cell_5_9 3) (= cell_5_9 4) (= cell_5_9 5) (= cell_5_9 6) (= cell_5_9 7) (= cell_5_9 8) (= cell_5_9 9))))
(assert
 (let (($x8386 (= cell_6_9 1)))
 (or $x8386 (= cell_6_9 2) (= cell_6_9 3) (= cell_6_9 4) (= cell_6_9 5) (= cell_6_9 6) (= cell_6_9 7) (= cell_6_9 8) (= cell_6_9 9))))
(assert
 (let (($x9957 (= cell_7_9 9)))
 (let (($x8839 (= cell_7_9 8)))
 (let (($x3034 (= cell_7_9 7)))
 (let (($x2065 (= cell_7_9 6)))
 (let (($x6528 (= cell_7_9 5)))
 (let (($x3325 (= cell_7_9 4)))
 (let (($x5064 (= cell_7_9 3)))
 (let (($x7288 (= cell_7_9 2)))
 (let (($x2023 (= cell_7_9 1)))
 (or $x2023 $x7288 $x5064 $x3325 $x6528 $x2065 $x3034 $x8839 $x9957)))))))))))
(assert
 (let (($x6331 (= cell_8_9 1)))
 (or $x6331 (= cell_8_9 2) (= cell_8_9 3) (= cell_8_9 4) (= cell_8_9 5) (= cell_8_9 6) (= cell_8_9 7) (= cell_8_9 8) (= cell_8_9 9))))
(assert
 (let (($x6483 (= cell_9_9 1)))
 (or $x6483 (= cell_9_9 2) (= cell_9_9 3) (= cell_9_9 4) (= cell_9_9 5) (= cell_9_9 6) (= cell_9_9 7) (= cell_9_9 8) (= cell_9_9 9))))
(assert
 (and (distinct cell_1_1 cell_1_2 cell_1_3 cell_1_4 cell_1_5 cell_1_6 cell_1_7 cell_1_8 cell_1_9) true))
(assert
 (and (distinct cell_2_1 cell_2_2 cell_2_3 cell_2_4 cell_2_5 cell_2_6 cell_2_7 cell_2_8 cell_2_9) true))
(assert
 (and (distinct cell_3_1 cell_3_2 cell_3_3 cell_3_4 cell_3_5 cell_3_6 cell_3_7 cell_3_8 cell_3_9) true))
(assert
 (and (distinct cell_4_1 cell_4_2 cell_4_3 cell_4_4 cell_4_5 cell_4_6 cell_4_7 cell_4_8 cell_4_9) true))
(assert
 (and (distinct cell_5_1 cell_5_2 cell_5_3 cell_5_4 cell_5_5 cell_5_6 cell_5_7 cell_5_8 cell_5_9) true))
(assert
 (and (distinct cell_6_1 cell_6_2 cell_6_3 cell_6_4 cell_6_5 cell_6_6 cell_6_7 cell_6_8 cell_6_9) true))
(assert
 (and (distinct cell_7_1 cell_7_2 cell_7_3 cell_7_4 cell_7_5 cell_7_6 cell_7_7 cell_7_8 cell_7_9) true))
(assert
 (and (distinct cell_8_1 cell_8_2 cell_8_3 cell_8_4 cell_8_5 cell_8_6 cell_8_7 cell_8_8 cell_8_9) true))
(assert
 (and (distinct cell_9_1 cell_9_2 cell_9_3 cell_9_4 cell_9_5 cell_9_6 cell_9_7 cell_9_8 cell_9_9) true))
(assert
 (and (distinct cell_1_1 cell_2_1 cell_3_1 cell_4_1 cell_5_1 cell_6_1 cell_7_1 cell_8_1 cell_9_1) true))
(assert
 (and (distinct cell_1_2 cell_2_2 cell_3_2 cell_4_2 cell_5_2 cell_6_2 cell_7_2 cell_8_2 cell_9_2) true))
(assert
 (and (distinct cell_1_3 cell_2_3 cell_3_3 cell_4_3 cell_5_3 cell_6_3 cell_7_3 cell_8_3 cell_9_3) true))
(assert
 (and (distinct cell_1_4 cell_2_4 cell_3_4 cell_4_4 cell_5_4 cell_6_4 cell_7_4 cell_8_4 cell_9_4) true))
(assert
 (and (distinct cell_1_5 cell_2_5 cell_3_5 cell_4_5 cell_5_5 cell_6_5 cell_7_5 cell_8_5 cell_9_5) true))
(assert
 (and (distinct cell_1_6 cell_2_6 cell_3_6 cell_4_6 cell_5_6 cell_6_6 cell_7_6 cell_8_6 cell_9_6) true))
(assert
 (and (distinct cell_1_7 cell_2_7 cell_3_7 cell_4_7 cell_5_7 cell_6_7 cell_7_7 cell_8_7 cell_9_7) true))
(assert
 (and (distinct cell_1_8 cell_2_8 cell_3_8 cell_4_8 cell_5_8 cell_6_8 cell_7_8 cell_8_8 cell_9_8) true))
(assert
 (and (distinct cell_1_9 cell_2_9 cell_3_9 cell_4_9 cell_5_9 cell_6_9 cell_7_9 cell_8_9 cell_9_9) true))
(assert
 (and (distinct cell_1_1 cell_1_2 cell_1_3 cell_2_1 cell_2_2 cell_2_3 cell_3_1 cell_3_2 cell_3_3) true))
(assert
 (and (distinct cell_1_4 cell_1_5 cell_1_6 cell_2_4 cell_2_5 cell_2_6 cell_3_4 cell_3_5 cell_3_6) true))
(assert
 (and (distinct cell_1_7 cell_1_8 cell_1_9 cell_2_7 cell_2_8 cell_2_9 cell_3_7 cell_3_8 cell_3_9) true))
(assert
 (and (distinct cell_4_1 cell_4_2 cell_4_3 cell_5_1 cell_5_2 cell_5_3 cell_6_1 cell_6_2 cell_6_3) true))
(assert
 (and (distinct cell_4_4 cell_4_5 cell_4_6 cell_5_4 cell_5_5 cell_5_6 cell_6_4 cell_6_5 cell_6_6) true))
(assert
 (and (distinct cell_4_7 cell_4_8 cell_4_9 cell_5_7 cell_5_8 cell_5_9 cell_6_7 cell_6_8 cell_6_9) true))
(assert
 (and (distinct cell_7_1 cell_7_2 cell_7_3 cell_8_1 cell_8_2 cell_8_3 cell_9_1 cell_9_2 cell_9_3) true))
(assert
 (and (distinct cell_7_4 cell_7_5 cell_7_6 cell_8_4 cell_8_5 cell_8_6 cell_9_4 cell_9_5 cell_9_6) true))
(assert
 (and (distinct cell_7_7 cell_7_8 cell_7_9 cell_8_7 cell_8_8 cell_8_9 cell_9_7 cell_9_8 cell_9_9) true))
(assert
 (let (($x3423 (and (distinct cell_5_9 cell_6_8 cell_7_7 cell_8_6) true)))
 (let (($x435 (and (distinct cell_2_9 cell_3_8 cell_4_7 cell_5_6 cell_6_5 cell_7_4 cell_8_3 cell_9_2) true)))
 (let (($x5934 (and (distinct cell_1_8 cell_2_7 cell_3_6 cell_4_5 cell_5_4 cell_6_3 cell_7_2 cell_8_1) true)))
 (let (($x2647 (and (distinct cell_1_5 cell_2_4 cell_3_3 cell_4_2) true)))
 (let (($x1646 (and (distinct cell_5_1 cell_6_2 cell_7_3 cell_8_4) true)))
 (let (($x3141 (and (distinct cell_2_1 cell_3_2 cell_4_3 cell_5_4 cell_6_5 cell_7_6 cell_8_7 cell_9_8) true)))
 (let (($x6382 (and (distinct cell_1_2 cell_2_3 cell_3_4 cell_4_5 cell_5_6 cell_6_7 cell_7_8 cell_8_9) true)))
 (let (($x9536 (and (distinct cell_1_5 cell_2_6 cell_3_7 cell_4_8) true)))
 (and $x9536 $x6382 $x3141 $x1646 $x2647 $x5934 $x435 $x3423))))))))))
(assert
 (= cell_2_5 2))
(check-sat)
